c This is QMaxSAT 2017 based on 14.07
c This is Glucose 3.0
c This is MiniSat 2.2.0
c WARNING: for repeatability, setting FPU to use double precision
c card = mrwto, comp = 0, pmodel = 0, narr = 8, mct = 42, verb = 0
cr firstCPXsol 0 0 0
c top = 127531
c |  Number of variables:    81352                                            |
c |  Number of clauses:      57043234                                         |
c |  Weight of hard clauses: 127531                                           |
c |  Number of soft clauses: 13776                                            |
c |  Number of unit soft clauses: 13776                                       |
c |  Maximum Cardinality (by unit): 1020240      (1020240     )               |
c last restart ## conflicts  :  19 4135 
o 1234 | cpuTime 39.8749 s
c Sum of weights = 127530
c A number of soft clauses remained = 1722
c MRWTO encoding for Pseudo-Boolean Constraints
c sizeMax=1234
c No.0 Divisor=11	generated by pow1
c No.1 Divisor=11	generated by pow1
c No.2 Divisor=11	generated by pow1
c p0= 11	p1= 11	p2= 11	
c number of digits = 4
c linkingVar[0].size = 11, linkingVar[1].size = 11, linkingVar[2].size = 11, linkingVar[3].size = 1, 
c Pseudo-Boolean Constraints: 34785 variables and 308787 clauses
c Sum of weights = 127530
c A number of soft clauses remained = 1722
c MRWTO encoding for Pseudo-Boolean Constraints
c sizeMax=1234
c No.0 Divisor=11	generated by pow1
c No.1 Divisor=11	generated by pow1
c No.2 Divisor=11	generated by pow1
c p0= 11	p1= 11	p2= 11	
c number of digits = 4
c linkingVar[0].size = 11, linkingVar[1].size = 11, linkingVar[2].size = 11, linkingVar[3].size = 1, 
c Pseudo-Boolean Constraints: 34785 variables and 308787 clauses
c Sum of weights = 127530
c A number of soft clauses remained = 1722
c MRWTO encoding for Pseudo-Boolean Constraints
c sizeMax=1234
c No.0 Divisor=11	generated by pow1
c No.1 Divisor=11	generated by pow1
c No.2 Divisor=11	generated by pow1
c p0= 11	p1= 11	p2= 11	
c number of digits = 4
c linkingVar[0].size = 11, linkingVar[1].size = 11, linkingVar[2].size = 11, linkingVar[3].size = 1, 
c Pseudo-Boolean Constraints: 34785 variables and 308787 clauses
c Sum of weights = 127530
c A number of soft clauses remained = 1722
c MRWTO encoding for Pseudo-Boolean Constraints
c sizeMax=1234
c No.0 Divisor=11	generated by pow1
c No.1 Divisor=11	generated by pow1
c No.2 Divisor=11	generated by pow1
c p0= 11	p1= 11	p2= 11	
c number of digits = 4
c linkingVar[0].size = 11, linkingVar[1].size = 11, linkingVar[2].size = 11, linkingVar[3].size = 1, 
c Pseudo-Boolean Constraints: 34785 variables and 308787 clauses
c Sum of weights = 127530
c A number of soft clauses remained = 1722
c MRWTO encoding for Pseudo-Boolean Constraints
c sizeMax=1234
c No.0 Divisor=11	generated by pow1
c No.1 Divisor=11	generated by pow1
c No.2 Divisor=11	generated by pow1
c p0= 11	p1= 11	p2= 11	
c number of digits = 4
c linkingVar[0].size = 11, linkingVar[1].size = 11, linkingVar[2].size = 11, linkingVar[3].size = 1, 
c Pseudo-Boolean Constraints: 34785 variables and 308787 clauses
c Sum of weights = 127530
c A number of soft clauses remained = 1722
c MRWTO encoding for Pseudo-Boolean Constraints
c sizeMax=1234
c No.0 Divisor=11	generated by pow1
c No.1 Divisor=11	generated by pow1
c No.2 Divisor=11	generated by pow1
c p0= 11	p1= 11	p2= 11	
c number of digits = 4
c linkingVar[0].size = 11, linkingVar[1].size = 11, linkingVar[2].size = 11, linkingVar[3].size = 1, 
c Pseudo-Boolean Constraints: 34785 variables and 308787 clauses
c Sum of weights = 127530
c A number of soft clauses remained = 1722
c MRWTO encoding for Pseudo-Boolean Constraints
c sizeMax=1234
c No.0 Divisor=11	generated by pow1
c No.1 Divisor=11	generated by pow1
c No.2 Divisor=11	generated by pow1
c p0= 11	p1= 11	p2= 11	
c number of digits = 4
c linkingVar[0].size = 11, linkingVar[1].size = 11, linkingVar[2].size = 11, linkingVar[3].size = 1, 
c Pseudo-Boolean Constraints: 34785 variables and 308787 clauses
c Sum of weights = 127530
c A number of soft clauses remained = 1722
c MRWTO encoding for Pseudo-Boolean Constraints
c sizeMax=1234
c No.0 Divisor=11	generated by pow1
c No.1 Divisor=11	generated by pow1
c No.2 Divisor=11	generated by pow1
c p0= 11	p1= 11	p2= 11	
c number of digits = 4
c linkingVar[0].size = 11, linkingVar[1].size = 11, linkingVar[2].size = 11, linkingVar[3].size = 1, 
c Pseudo-Boolean Constraints: 34785 variables and 308787 clauses
c last restart ## conflicts  :  174 16944 
o 957 | cpuTime 333.054 s
c last restart ## conflicts  :  208 23178 
o 953 | cpuTime 790.892 s
c last restart ## conflicts  :  173 29368 
o 665 | cpuTime 826.208 s
c last restart ## conflicts  :  74 16513 
o 664 | cpuTime 1120.45 s
c last restart ## conflicts  :  89 23951 
o 623 | cpuTime 1120.77 s
c last restart ## conflicts  :  199 11443 
o 565 | cpuTime 1589.3 s
c last restart ## conflicts  :  544 8214 
o 506 | cpuTime 2243.33 s
s UNKNOWN
c Search is stopped by a limit (maybe time-limit)
cr positiVarArr: [ | 2@1(1->2) | 83@1(2->41) | 85@1(3->1) | 151@1(4->25) | 248@1(6->38) | 258@1(7->6) | 301@1(8->7) | 344@1(9->8) | 429@1(11->9) | 977@1(24->11) | 1032@1(25->24) | 1465@1(35->37) | 1551@1(37->39) | 1589@1(38->35) | 1599@1(39->3) | 1684@1(41->4) | 1791@2(1->27) | 2299@2(13->31) | 2869@2(27->13) | 3025@2(31->1) | 3556@3(1->28) | 4306@3(19->22) | 4433@3(22->23) | 4453@3(23->1) | 4695@3(28->33) | 4891@3(33->19) | 5309@4(1->17) | 5965@4(17->1) | 7088@5(1->32) | 7645@5(15->1) | 8398@5(32->40) | 8709@5(40->15) | 8862@6(1->42) | 9484@6(16->34) | 9676@6(21->16) | 10032@6(29->36) | 10059@6(30->21) | 10235@6(34->29) | 10291@6(36->1) | 10572@6(42->30) | 10598@7(1->14) | 10778@7(5->26) | 10967@7(10->5) | 11140@7(14->10) | 11635@7(26->1) | 12366@8(1->18) | 12811@8(12->1) | 13082@8(18->20) | 13158@8(20->12) | ]
cr the 1-th chain: [ 1->2->41->4->25->24->11->9->8->7->6->38->35->37->39->3->1 ] (#non-depot=15) {#cumul.=16}
cr the 2-th chain: [ 1->27->13->31->1 ] (#non-depot=3) {#cumul.=19}
cr the 3-th chain: [ 1->28->33->19->22->23->1 ] (#non-depot=5) {#cumul.=24}
cr the 4-th chain: [ 1->17->1 ] (#non-depot=1) {#cumul.=25}
cr the 5-th chain: [ 1->32->40->15->1 ] (#non-depot=3) {#cumul.=28}
cr the 6-th chain: [ 1->42->30->21->16->34->29->36->1 ] (#non-depot=7) {#cumul.=35}
cr the 7-th chain: [ 1->14->10->5->26->1 ] (#non-depot=4) {#cumul.=39}
cr the 8-th chain: [ 1->18->20->12->1 ] (#non-depot=3) {#cumul.=42}
c Latest Answer = 0 by 8 loops
c restarts              : 26305
c conflicts             : 5475694        (1530 /sec)
c decisions             : 157855558      (0.00 % random) (44104 /sec)
c propagations          : 16422732345    (4588421 /sec)
c conflict literals     : 5478192337     (10.94 % deleted)
c Memory used           : 5545.00 MB
c CPU time              : 3579.17 s
